; benchmark generated from python API
(set-info :status unknown)
(declare-datatypes ((RealState 0)) (((RMk1 (rval1 Real)) (RMk2 (rval2 Real)))))
 (assert
 (forall ((|v17:0| Real) )(forall ((|v16:1| Real) )(forall ((|v15:2| Real) )(forall ((|v14:3| Real) )(forall ((|v13:4| Real) )(forall ((|v12:5| Real) )(exists ((|v11:6_st| RealState) (val!8676 Real) )(exists ((|v10:7_st| RealState) (val!8677 Real) )(exists ((|v9:8_st| RealState) (val!8678 Real) )(exists ((|v8:9_st| RealState) (val!8679 Real) )(exists ((|v7:10_st| RealState) (val!8680 Real) )(exists ((|v6:11_st| RealState) (val!8681 Real) )(forall ((|v5:12| Real) )(forall ((|v4:13| Real) )(forall ((|v3:14| Real) )(forall ((|v2:15| Real) )(forall ((|v1:16| Real) )(forall ((|v0:17| Real) )(let ((?x218 (+ (* (- 5.0) |v3:14|) (* (- 6.0) |v0:17|))))
 (let (($x2626 (<= (+ (+ ?x218 (* (- 17.0) (rval2 |v7:10_st|))) (* (- 17.0) |v14:3|)) 8.0)))
 (let ((?x1130 (- 17.0)))
 (let ((?x1229 (* 8.0 |v17:0|)))
 (let (($x1228 (<= (+ (+ (+ (* 12.0 |v2:15|) (* 5.0 |v1:16|)) (* 2.0 |v16:1|)) ?x1229) ?x1130)))
 (let ((?x2149 (- 18.0)))
 (let ((?x818 (* 4.0 |v14:3|)))
 (let ((?x1674 (rval2 |v9:8_st|)))
 (let ((?x3189 (- 12.0)))
 (let ((?x385 (* ?x3189 ?x1674)))
 (let (($x132 (<= (+ (+ (+ (* (- 19.0) ?x1674) (* 10.0 |v1:16|)) ?x385) ?x818) ?x2149)))
 (let ((?x1829 (rval2 |v11:6_st|)))
 (let ((?x2942 (* 2.0 ?x1829)))
 (let (($x527 (<= (+ (+ (+ |v0:17| (* 8.0 |v13:4|)) (* (- 5.0) |v16:1|)) ?x2942) 15.0)))
 (let ((?x295 (- 11.0)))
 (let ((?x1434 (+ (+ (+ (* (- 8.0) |v16:1|) (* ?x295 ?x1829)) (* 20.0 |v13:4|)) (* (- 2.0) (rval2 |v8:9_st|)))))
 (let ((?x2902 (* 18.0 |v0:17|)))
 (let ((?x2303 (+ (+ (+ (* 14.0 (rval2 |v7:10_st|)) (* (- 10.0) |v1:16|)) (* 11.0 |v5:12|)) ?x2902)))
 (let ((?x372 (rval2 |v8:9_st|)))
 (let ((?x3078 (* 19.0 ?x372)))
 (let (($x2043 (<= (+ (+ (+ (* 3.0 |v14:3|) (* 19.0 |v15:2|)) (* 5.0 |v2:15|)) ?x3078) 12.0)))
 (let (($x300 (or (or (and $x2043 (<= ?x2303 5.0)) (or (<= ?x1434 ?x295) $x527)) (and $x132 (and $x1228 $x2626)))))
 (let ((?x1849 (- 4.0)))
 (let ((?x2987 (* 6.0 ?x372)))
 (let (($x504 (<= (+ (+ (+ (* 8.0 |v0:17|) (* 14.0 |v13:4|)) (* 15.0 |v1:16|)) ?x2987) ?x1849)))
 (let ((?x1092 (rval2 |v7:10_st|)))
 (let ((?x1699 (* 7.0 ?x1092)))
 (let (($x268 (<= (+ (+ (+ (* 11.0 |v14:3|) (* 2.0 |v5:12|)) (* 16.0 ?x1829)) ?x1699) 1.0)))
 (let ((?x1970 (- 20.0)))
 (let ((?x3375 (* ?x1970 |v3:14|)))
 (let (($x683 (<= (+ (+ (+ (* 0.0 |v17:0|) (* 4.0 |v4:13|)) (* ?x3189 |v1:16|)) ?x3375) 6.0)))
 (let ((?x1806 (+ (+ (+ (* ?x1130 |v3:14|) (* ?x3189 (rval2 |v10:7_st|))) (* ?x1970 |v0:17|)) (* (- 1.0) |v15:2|))))
 (let ((?x2447 (+ (+ (+ (* 16.0 ?x1092) (* 4.0 |v4:13|)) (* (- 10.0) |v13:4|)) (* (- 19.0) ?x1092))))
 (let ((?x2282 (- 2.0)))
 (let ((?x3066 (* ?x2282 |v13:4|)))
 (let ((?x361 (- 7.0)))
 (let ((?x2054 (* ?x361 |v2:15|)))
 (let (($x306 (<= (+ (+ (+ (* 10.0 ?x1829) (* (- 5.0) (rval2 |v6:11_st|))) ?x2054) ?x3066) 15.0)))
 (let ((?x192 (- 10.0)))
 (let ((?x3012 (* ?x192 |v3:14|)))
 (let (($x960 (<= (+ (+ (+ (* 17.0 |v16:1|) (* 7.0 |v3:14|)) (* 13.0 ?x1674)) ?x3012) 5.0)))
 (let ((?x1850 (+ (+ (+ (* 4.0 |v3:14|) (* ?x1130 |v3:14|)) (* 14.0 ?x1092)) (* ?x192 ?x372))))
 (let (($x2549 (and (or (and (<= ?x1850 19.0) $x960) (and $x306 (<= ?x2447 18.0))) (or (or (<= ?x1806 7.0) $x683) (or $x268 $x504)))))
 (let ((?x2085 (* 10.0 ?x1829)))
 (let ((?x279 (+ (+ (+ (* (- 16.0) ?x1092) (* (- 5.0) |v13:4|)) (* ?x3189 |v13:4|)) ?x2085)))
 (let ((?x465 (* ?x1849 |v3:14|)))
 (let ((?x2955 (+ (+ (* (- 14.0) |v0:17|) (* (- 6.0) |v13:4|)) (* (- 5.0) ?x372))))
 (let ((?x1814 (- 19.0)))
 (let ((?x1479 (* ?x1814 |v16:1|)))
 (let (($x3176 (<= (+ (+ (+ (* (- 14.0) |v4:13|) (* (- 15.0) |v14:3|)) |v1:16|) ?x1479) 17.0)))
 (let ((?x2092 (- 9.0)))
 (let ((?x869 (* 18.0 |v3:14|)))
 (let (($x2963 (<= (+ (+ (+ (* (- 1.0) |v3:14|) (* ?x2282 |v15:2|)) (* 2.0 |v0:17|)) ?x869) ?x2092)))
 (let ((?x535 (- 16.0)))
 (let ((?x689 (* 9.0 |v17:0|)))
 (let (($x1320 (<= (+ (+ (+ (* 10.0 ?x1674) (* 8.0 |v15:2|)) (* 6.0 |v1:16|)) ?x689) ?x535)))
 (let (($x2947 (<= (+ (+ (+ (* ?x2149 |v15:2|) (* ?x3189 ?x1829)) |v17:0|) (* (- 6.0) ?x1674)) ?x2092)))
 (let (($x937 (<= (+ (+ (+ (* 7.0 |v2:15|) |v5:12|) (* 3.0 |v12:5|)) (* 16.0 |v13:4|)) 14.0)))
 (let ((?x1004 (- 15.0)))
 (let ((?x2746 (* ?x295 |v0:17|)))
 (let (($x2096 (<= (+ (+ (+ (* 14.0 |v13:4|) (* 15.0 |v1:16|)) (* 12.0 |v5:12|)) ?x2746) ?x1004)))
 (let (($x1941 (or (or (and $x2096 $x937) (and $x2947 $x1320)) (or (or $x2963 $x3176) (or (<= (+ ?x2955 ?x465) 13.0) (<= ?x279 16.0))))))
 (let ((?x2302 (- 13.0)))
 (let ((?x958 (* ?x2302 |v14:3|)))
 (let ((?x1078 (- 6.0)))
 (let ((?x1709 (* 2.0 |v16:1|)))
 (let (($x269 (<= (+ (+ (+ (* 10.0 |v1:16|) (* ?x1004 ?x1829)) (* ?x295 |v4:13|)) ?x1709) ?x1078)))
 (let (($x1348 (and $x269 (<= (+ (+ (+ (* 5.0 |v17:0|) (* 8.0 ?x1829)) ?x3066) ?x958) ?x192))))
 (let ((?x445 (* ?x192 |v1:16|)))
 (let (($x662 (<= (+ (+ (+ (* 3.0 |v3:14|) (* ?x192 |v17:0|)) (* 13.0 |v0:17|)) ?x445) 19.0)))
 (let ((?x566 (+ (+ (* (- 5.0) |v2:15|) (* (- 8.0) |v4:13|)) (* ?x2092 |v2:15|))))
 (let ((?x2431 (- 14.0)))
 (let ((?x791 (* 10.0 |v13:4|)))
 (let (($x1670 (<= (+ (+ (+ (* ?x2302 |v15:2|) (* 3.0 |v17:0|)) (* 2.0 |v0:17|)) ?x791) ?x2431)))
 (let ((?x210 (+ (+ (+ (* ?x3189 (rval2 |v6:11_st|)) ?x1479) (* ?x2092 |v4:13|)) (* 9.0 |v12:5|))))
 (let ((?x3278 (* 20.0 |v3:14|)))
 (let (($x488 (<= (+ (+ (+ (* ?x2302 ?x1829) (* 16.0 |v3:14|)) (* 7.0 |v17:0|)) ?x3278) 0.0)))
 (let ((?x3126 (- 3.0)))
 (let (($x2567 (<= (+ (+ (+ ?x818 (* ?x1004 |v2:15|)) (* 13.0 ?x1092)) (* 2.0 |v13:4|)) ?x3126)))
 (let (($x1816 (or (and (or $x2567 $x488) (or (<= ?x210 ?x1970) $x1670)) (or (and (<= (+ ?x566 (* 15.0 (rval2 |v6:11_st|))) 11.0) $x662) $x1348))))
 (let (($x3025 (<= (+ (+ (+ (* ?x3126 |v14:3|) ?x1674) (* 2.0 |v17:0|)) (* 18.0 |v2:15|)) 19.0)))
 (let ((?x2635 (* ?x1130 |v5:12|)))
 (let (($x882 (<= (+ (+ (+ (* 17.0 ?x1829) (* ?x535 |v14:3|)) (* 12.0 |v4:13|)) ?x2635) ?x295)))
 (let ((?x1771 (* 6.0 |v2:15|)))
 (let (($x513 (<= (+ (+ (+ (* ?x192 |v0:17|) (* 19.0 ?x1092)) (* 3.0 |v14:3|)) ?x1771) ?x2092)))
 (let ((?x3198 (- 5.0)))
 (let ((?x2778 (+ (+ (+ (* 20.0 |v12:5|) (* 0.0 |v13:4|)) (* ?x3126 ?x1674)) (* ?x295 ?x372))))
 (let ((?x1030 (* 4.0 |v4:13|)))
 (let ((?x3296 (+ (+ (+ (* 18.0 ?x1674) (* (- 1.0) |v2:15|)) (* 13.0 |v3:14|)) ?x1030)))
 (let ((?x2714 (+ (+ (+ (* 7.0 |v5:12|) (* ?x361 (rval2 |v6:11_st|))) (* 12.0 |v17:0|)) (* 0.0 |v14:3|))))
 (let ((?x2552 (* 19.0 |v13:4|)))
 (let (($x1554 (<= (+ (+ (+ (* ?x1130 |v12:5|) (* 2.0 |v15:2|)) (* ?x1970 |v0:17|)) ?x2552) ?x1130)))
 (let (($x1980 (and (and $x1554 (and (<= ?x2714 0.0) (<= ?x3296 0.0))) (and (and (<= ?x2778 ?x3198) $x513) (or $x882 $x3025)))))
 (let ((?x2061 (+ (+ (+ (* ?x2092 |v5:12|) (* 9.0 |v15:2|)) (* (- 8.0) |v0:17|)) (* ?x2092 |v12:5|))))
 (let ((?x1083 (- 8.0)))
 (let ((?x2697 (* ?x1078 ?x372)))
 (let (($x393 (and (<= (+ (+ (+ ?x2697 (* 5.0 |v4:13|)) (* ?x2282 |v3:14|)) ?x2697) ?x1083) (<= ?x2061 18.0))))
 (let ((?x1188 (* ?x2092 |v14:3|)))
 (let (($x1195 (<= (+ (+ (+ (* (- 1.0) ?x372) (* ?x2431 ?x1092)) (* 0.0 ?x1674)) ?x1188) 7.0)))
 (let ((?x1504 (* 3.0 |v1:16|)))
 (let ((?x2734 (+ (+ (+ (* ?x1083 |v13:4|) (* 8.0 (rval2 |v10:7_st|))) (* ?x1849 |v16:1|)) ?x1504)))
 (let (($x1265 (<= (+ (+ (+ (* ?x192 |v2:15|) (* 9.0 ?x1829)) (* ?x2149 |v16:1|)) ?x1188) ?x1004)))
 (let ((?x1116 (+ (+ (+ (* ?x1083 |v15:2|) (* 16.0 ?x372)) (* ?x3189 |v5:12|)) (* (- 1.0) ?x1092))))
 (let ((?x3470 (+ (+ (+ (* (- 1.0) (rval2 |v6:11_st|)) (* ?x2302 ?x1829)) (* 11.0 |v15:2|)) (* ?x1970 ?x1829))))
 (let (($x3180 (<= (+ (+ (+ (* 14.0 |v5:12|) ?x385) (* ?x295 |v5:12|)) (* 12.0 |v13:4|)) ?x3126)))
 (let (($x1121 (or (or (and $x3180 (<= ?x3470 17.0)) (or (<= ?x1116 12.0) $x1265)) (or (or (<= ?x2734 ?x3126) $x1195) $x393))))
 (let ((?x3201 (+ (+ (+ (* 3.0 (rval2 |v6:11_st|)) (* 6.0 |v3:14|)) (* 15.0 ?x372)) (* ?x1970 (rval2 |v10:7_st|)))))
 (let ((?x984 (* ?x1078 |v2:15|)))
 (let (($x2369 (<= (+ (+ (+ (* 6.0 |v1:16|) (* ?x192 |v13:4|)) (* ?x2431 ?x1829)) ?x984) ?x2431)))
 (let ((?x2703 (* 11.0 |v0:17|)))
 (let (($x3046 (<= (+ (+ (+ (* 3.0 |v3:14|) (* ?x1004 |v17:0|)) (* ?x2149 |v2:15|)) ?x2703) ?x295)))
 (let ((?x1913 (+ (+ (+ (* 18.0 ?x372) (* ?x2092 |v3:14|)) (* ?x2282 |v17:0|)) (* ?x361 |v16:1|))))
 (let ((?x3162 (* 13.0 |v12:5|)))
 (let ((?x1129 (+ (+ (+ (* 14.0 |v14:3|) (* ?x535 (rval2 |v10:7_st|))) (* 12.0 |v1:16|)) ?x3162)))
 (let (($x2310 (<= (+ (+ (+ ?x958 (* ?x3126 |v2:15|)) (* ?x3189 (rval2 |v6:11_st|))) (* ?x1970 |v15:2|)) ?x1130)))
 (let ((?x2142 (+ (+ (+ (* ?x2092 (rval2 |v6:11_st|)) (* ?x1970 |v16:1|)) (* ?x1849 |v15:2|)) (* ?x295 (rval2 |v6:11_st|)))))
 (let ((?x2433 (* 16.0 |v4:13|)))
 (let ((?x1981 (+ (+ (+ (* 8.0 (rval2 |v10:7_st|)) (* 7.0 |v13:4|)) (* 18.0 ?x372)) ?x2433)))
 (let (($x2373 (and (and (or (<= ?x1981 ?x2149) (<= ?x2142 ?x2302)) (and $x2310 (<= ?x1129 ?x2092))) (or (or (<= ?x1913 ?x361) $x3046) (and $x2369 (<= ?x3201 1.0))))))
 (let ((?x3444 (+ (+ (+ (* (- 1.0) |v14:3|) (* 14.0 |v12:5|)) (* ?x2149 |v5:12|)) (* 15.0 ?x1674))))
 (let ((?x2857 (+ (+ (+ (* 20.0 (rval2 |v10:7_st|)) (* ?x2431 |v3:14|)) (* ?x1083 ?x1674)) (* 12.0 ?x1674))))
 (let ((?x408 (+ (+ (+ (* 7.0 |v3:14|) (* ?x3126 |v3:14|)) (* ?x192 |v4:13|)) (* 15.0 |v5:12|))))
 (let (($x3291 (<= ?x408 15.0)))
 (let ((?x636 (* ?x2431 |v5:12|)))
 (let (($x1367 (<= (+ (+ (+ (* ?x1814 |v5:12|) (* ?x361 ?x372)) (* ?x1970 |v0:17|)) ?x636) 3.0)))
 (let ((?x1150 (* 4.0 |v3:14|)))
 (let (($x1474 (<= (+ (+ (+ (* 15.0 |v3:14|) (* 8.0 |v16:1|)) (* 11.0 |v3:14|)) ?x1150) ?x3189)))
 (let ((?x1257 (* 0.0 |v5:12|)))
 (let ((?x2073 (+ (+ (+ (* 19.0 (rval2 |v6:11_st|)) (* ?x1130 (rval2 |v6:11_st|))) ?x1257) (* (- 1.0) |v16:1|))))
 (let ((?x696 (* 19.0 |v14:3|)))
 (let (($x2804 (<= (+ (+ (+ (* ?x2092 |v3:14|) (* 5.0 |v4:13|)) (* ?x1083 ?x1674)) ?x696) ?x2302)))
 (let ((?x3115 (+ (+ (+ (* (- 1.0) |v13:4|) (* ?x1078 ?x1674)) (* ?x2302 (rval2 |v6:11_st|))) (* 15.0 ?x1092))))
 (let (($x1880 (and (and (or (<= ?x3115 ?x2149) $x2804) (or (<= ?x2073 ?x1004) $x1474)) (or (and $x1367 $x3291) (or (<= ?x2857 ?x3198) (<= ?x3444 2.0))))))
 (let (($x3116 (or (and (or $x1880 $x2373) (or $x1121 $x1980)) (and (and $x1816 $x1941) (and $x2549 $x300)))))
 (let (($x785 (not (= |v6:11_st| (RMk1 val!8681)))))
 (let (($x1017 (not (= |v7:10_st| (RMk1 val!8680)))))
 (let (($x2912 (not (= |v8:9_st| (RMk1 val!8679)))))
 (let (($x2702 (not (= |v9:8_st| (RMk1 val!8678)))))
 (let (($x1978 (not (= |v10:7_st| (RMk1 val!8677)))))
 (let (($x891 (not (= |v11:6_st| (RMk1 val!8676)))))
 (and $x891 $x1978 $x2702 $x2912 $x1017 $x785 $x3116))))))))))))))))))))))))))))))))))))))))))))))))))))))))))))))))))))))))))))))))))))))))))))))))))))))))))))))))))))))))))))))))))))))))))))))
 )
 )
 )
 )
 )
 )
 )
 )
 )
 )
 )
 )
 )
 )
 )
 )
 )
 )
(check-sat)
